32 10000
9315 32
5510 85
8490 93
4803 99
6910 90
4171 5
6960 2
4972 57
6300 59
4837 72
869 80
9463 14
1310 82
2086 23
3576 53
3987 87
4852 7
3303 66
6039 74
8014 25
6815 29
8598 91
859 48
7883 99
6554 45
3974 75
2338 34
3286 46
1684 1
3845 64
6223 17
1937 39
